!M062X 6-31+G(d) CPCM(water) LooseOpt OptTS
%pal
nprocs 8
end
* xyz 0 1
C      3.742908    0.969696    0.360231
C      3.419393   -0.476396    0.738773
C      1.027552    2.499448    0.754832
C      1.944798    2.034042    1.879552
C      3.425648    1.984054    1.470410
C      4.035645   -1.493323   -0.223491
C      3.617214   -2.932340    0.076365
O      2.198623   -3.033687   -0.185003
C      1.382466   -3.481690    0.783213
C     -0.039508   -3.212526    0.514132
C     -0.527513   -2.941744   -0.710140
C     -0.419525    2.277329    0.952576
C     -1.864471   -2.459852   -0.935797
C     -2.738468    2.482027    0.117631
C     -1.317456    2.632749    0.008121
C     -2.339507   -2.241236   -2.194690
C     -3.548322   -1.548126   -2.450335
C     -3.735407   -0.253117   -2.042257
C     -3.583032    2.673561   -0.949882
C     -5.057218    0.457046   -2.218256
C     -5.480670    0.983384   -0.826426
C     -5.081080    2.480432   -0.753779
O      1.739814   -3.971635    1.845174
O      1.452714    3.048245   -0.259506
C      4.324809   -3.921538   -0.839545
C      1.758946    2.984202    3.075476
H     -3.213037    2.966471   -1.927807
O      4.225484    1.667169    2.615500
H     -3.149783    2.166666    1.075345
O     -5.030751    0.240872    0.299760
H     -2.916721    0.257345   -1.544365
H     -2.456287   -2.164309   -0.071502
H      3.224761    1.229290   -0.568901
H      4.817959    1.032587    0.145932
H      3.779570   -0.696466    1.750563
H      2.330954   -0.600755    0.754938
H      1.623429    1.036305    2.201845
H      3.741392    2.978143    1.129091
H      3.730755   -1.231879   -1.245145
H      5.128449   -1.410795   -0.178507
H      3.852524   -3.173684    1.119542
H     -0.664395   -3.185476    1.399777
H      0.130763   -2.994716   -1.576223
H     -0.737185    1.823011    1.883565
H     -0.948619    3.068860   -0.921258
H     -1.764426   -2.544144   -3.066939
H     -4.325619   -2.082385   -2.990345
H     -5.813749   -0.260658   -2.559655
H     -4.996793    1.241864   -2.979093
H     -6.577076    0.959694   -0.784938
H     -5.613077    3.061155   -1.516582
H     -5.374281    2.887873    0.221922
H      5.410037   -3.880477   -0.706549
H      4.091139   -3.721296   -1.891008
H      3.986196   -4.942099   -0.631105
H      2.331151    2.648138    3.946182
H      0.710618    3.045050    3.385658
H      2.083436    4.000050    2.822895
H      5.158035    1.741390    2.346957
H     -5.113405   -0.701798    0.073373
END
