!M062X opt
%pal
nprocs 8
end
%geom Constraints
{ D 4 0 1 5 1.8979184551618722 C }
{ D 1 0 4 3 352.3531363538469 C }
{ D 0 1 5 6 150.2569067647559 C }
{ D 4 3 2 11 136.91356010619688 C }
{ D 14 11 2 3 151.32517011210368 C }
{ D 0 4 3 2 237.0122465963819 C }
{ D 1 5 6 7 348.58261553466184 C }
{ D 5 6 7 8 254.21591108330276 C }
{ D 9 8 7 6 269.5899662733424 C }
{ D 10 9 8 7 92.30000841317342 C }
{ D 8 9 10 12 4.927518885955446 C }
{ D 9 10 12 15 165.6227054781945 C }
{ D 2 11 14 13 170.54660068261998 C }
{ D 10 12 15 16 198.99408253320104 C }
{ D 11 14 13 18 155.32866859253818 C }
{ D 14 13 18 21 58.85939266188664 C }
{ D 12 15 16 17 336.55830002248695 C }
{ D 15 16 17 19 179.36973424019916 C }
{ D 16 17 19 20 245.80500524282564 C }
{ D 13 18 21 20 140.05739544271893 C }
{ D 17 19 20 21 293.3997893900974 C }
{ D 18 21 20 19 53.21198138125041 C }
end
end
* xyz 0 1
C     -2.062355    0.905806    4.514562
C     -1.484126    2.448471    3.306727
C     -1.598511   -1.114643    2.106980
C     -2.327063   -0.090385    2.598926
C     -2.492372   -0.162409    3.827227
C     -1.626091    2.010377    1.223070
C     -0.296484    2.982251    0.110545
O      0.530078    3.498384    0.865101
C      1.847797    2.904559    0.950944
C      3.101214    3.673290   -0.348727
C      3.389878    3.010314   -1.979792
C     -0.707698   -0.808323    1.243489
C      2.638329    1.471258   -2.550697
C      0.580917   -1.479913   -0.379808
C     -0.388158   -1.595717    0.411255
C      3.144036    0.569974   -3.986602
C      2.722490   -1.080141   -4.184467
C      1.740847   -1.557914   -3.598608
C      0.603018   -2.037368   -1.418831
C      1.180430   -3.279323   -3.693952
C      1.309014   -3.872639   -2.520456
C      0.526276   -3.400799   -1.595434
O      2.151210    1.947594    1.645320
O     -1.746109   -2.309888    2.425951
C     -0.057315    2.089377   -1.069869
C     -3.636558    0.631352    1.924094
H     -0.263497   -1.688939   -2.021796
O     -1.894185   -1.244031    4.595250
H      1.549339   -1.356607    0.120004
O      2.689653   -3.924330   -2.109290
H      1.016235   -0.836818   -3.237035
H      2.123289    0.895786   -1.795056
H     -2.820872    1.420377    5.120501
H     -1.165669    0.811361    5.143244
H     -2.169444    3.279672    3.479737
H     -0.419404    2.603440    3.489073
H     -3.096489   -0.895634    2.412095
H     -3.547892   -0.288477    4.131132
H     -2.512092    2.600510    0.950976
H     -1.648338    1.040185    0.798760
H     -0.956958    3.772713   -0.273613
H      3.548968    4.598553   -0.007722
H      4.082294    3.499746   -2.656599
H     -0.066450    0.048496    1.447209
H     -1.015827   -2.489605    0.292228
H      3.857387    1.012821   -4.673440
H      3.466959   -1.632307   -4.750243
H      0.168968   -3.212269   -4.117533
H      1.826500   -3.697044   -4.478868
H      1.074738   -4.937305   -2.661469
H      0.734143   -3.920659   -0.643473
H     -0.522966   -3.686871   -1.794153
H      0.485300    2.632770   -1.843030
H     -1.003126    1.754466   -1.508524
H      0.489049    1.207229   -0.753853
H     -4.587994    0.155403    2.229271
H     -3.635730    0.563453    0.829044
H     -3.769488    1.661093    2.270135
H     -2.038901   -2.088568    4.115176
H      2.979406   -3.011751   -1.924888
END
